c Cardinality constraint <=k(x_1,...,x_n) for k = 3 and n = 9.
p cnf 33 53
-1 10 0
-11 0
-12 0
-2 13 0
-10 13 0
-2 -10 14 0
-11 14 0
-2 -11 15 0
-12 15 0
-2 -12 0
-3 16 0
-13 16 0
-3 -13 17 0
-14 17 0
-3 -14 18 0
-15 18 0
-3 -15 0
-4 19 0
-16 19 0
-4 -16 20 0
-17 20 0
-4 -17 21 0
-18 21 0
-4 -18 0
-5 22 0
-19 22 0
-5 -19 23 0
-20 23 0
-5 -20 24 0
-21 24 0
-5 -21 0
-6 25 0
-22 25 0
-6 -22 26 0
-23 26 0
-6 -23 27 0
-24 27 0
-6 -24 0
-7 28 0
-25 28 0
-7 -25 29 0
-26 29 0
-7 -26 30 0
-27 30 0
-7 -27 0
-8 31 0
-28 31 0
-8 -28 32 0
-29 32 0
-8 -29 33 0
-30 33 0
-8 -30 0
-9 -33 0
